\ENCODING=ISO-8859-1
\Problem name: k16x240b.mps

Maximize
 OBJ.....: -9 x....001         -9 x....002         -1 x....003         -9 x....004         -7 x....005         -8 x....006         -1 x....007         -6 x....008         -8 x....009         -9 x....010         -1 x....011         -7 x....012         -2 x....013         -3 x....014         -4 x....015         -4 x....016         -2 x....017         -2 x....018         -8 x....019         -8 x....020         -3 x....021         -1 x....022         -6 x....023         -6 x....024         -7 x....025         -4 x....026         -3 x....027         -1 x....028         -6 x....029         -9 x....030         -4 x....031         -3 x....032         -4 x....033         -1 x....034         -4 x....035         -1 x....036         -4 x....037         -6 x....038         -7 x....039         -4 x....040         -7 x....041         -9 x....042         -5 x....043         -9 x....044         -8 x....045         -4 x....046         -7 x....047         -7 x....048         -9 x....049         -3 x....050         -8 x....051         -7 x....052         -3 x....053         -5 x....054         -9 x....055         -2 x....056         -6 x....057         -6 x....058         -1 x....059         -4 x....060         -1 x....061         -4 x....062         -9 x....063         -3 x....064         -2 x....065         -1 x....066         -2 x....067         -9 x....068         -3 x....069         -2 x....070         -2 x....071         -5 x....072         -2 x....073         -5 x....074         -9 x....075         -4 x....076         -6 x....077         -6 x....078         -5 x....079         -8 x....080         -6 x....081         -3 x....082         -2 x....083         -3 x....084         -4 x....085         -2 x....086         -3 x....087         -4 x....088         -4 x....089         -5 x....090         -1 x....091         -9 x....092         -9 x....093         -6 x....094         -7 x....095         -8 x....096         -8 x....097         -7 x....098         -9 x....099         -9 x....100         -1 x....101         -6 x....102         -8 x....103         -5 x....104         -1 x....105         -8 x....106         -2 x....107         -4 x....108         -3 x....109         -9 x....110         -2 x....111         -7 x....112         -8 x....113         -3 x....114         -2 x....115         -6 x....116         -1 x....117         -4 x....118         -5 x....119         -2 x....120         -3 x....121         -3 x....122         -7 x....123         -1 x....124         -4 x....125         -2 x....126         -6 x....127         -4 x....128         -8 x....129         -9 x....130         -9 x....131         -8 x....132         -2 x....133         -8 x....134         -5 x....135         -7 x....136         -5 x....137         -9 x....138         -8 x....139         -3 x....140         -1 x....141         -1 x....142         -8 x....143         -6 x....144         -9 x....145         -6 x....146         -9 x....147         -6 x....148         -5 x....149         -5 x....150         -2 x....151         -6 x....152         -3 x....153         -2 x....154         -7 x....155         -2 x....156         -1 x....157         -5 x....158         -6 x....159         -1 x....160         -5 x....161         -4 x....162         -5 x....163         -8 x....164         -5 x....165         -3 x....166         -9 x....167         -2 x....168         -5 x....169         -4 x....170         -2 x....171         -3 x....172         -8 x....173         -4 x....174         -2 x....175         -3 x....176         -5 x....177         -8 x....178         -6 x....179         -2 x....180         -1 x....181         -2 x....182         -4 x....183         -7 x....184         -5 x....185         -7 x....186         -2 x....187         -2 x....188         -9 x....189         -1 x....190         -3 x....191         -2 x....192         -5 x....193         -3 x....194         -8 x....195         -2 x....196         -3 x....197         -3 x....198         -7 x....199         -1 x....200         -5 x....201         -4 x....202         -6 x....203         -5 x....204         -2 x....205         -8 x....206         -3 x....207         -7 x....208         -1 x....209         -5 x....210         -7 x....211         -9 x....212         -9 x....213         -1 x....214         -8 x....215         -3 x....216         -2 x....217         -3 x....218         -2 x....219         -4 x....220         -8 x....221         -4 x....222         -9 x....223         -6 x....224         -5 x....225         -7 x....226         -4 x....227         -2 x....228         -4 x....229         -4 x....230         -3 x....231         -6 x....232         -4 x....233         -7 x....234         -8 x....235         -1 x....236         -7 x....237         -9 x....238         -6 x....239         -4 x....240         -834 y....001         -724 y....002         -962 y....003         -645 y....004         -961 y....005         -942 y....006         -891 y....007         -653 y....008         -921 y....009         -895 y....010         -771 y....011         -912 y....012         -535 y....013         -811 y....014         -673 y....015         -711 y....016         -547 y....017         -757 y....018         -723 y....019         -778 y....020         -690 y....021         -606 y....022         -764 y....023         -805 y....024         -870 y....025         -601 y....026         -629 y....027         -954 y....028         -966 y....029         -808 y....030         -626 y....031         -538 y....032         -929 y....033         -615 y....034         -704 y....035         -806 y....036         -521 y....037         -572 y....038         -777 y....039         -512 y....040         -661 y....041         -767 y....042         -531 y....043         -650 y....044         -966 y....045         -691 y....046         -957 y....047         -883 y....048         -709 y....049         -588 y....050         -506 y....051         -668 y....052         -762 y....053         -859 y....054         -548 y....055         -541 y....056         -791 y....057         -520 y....058         -848 y....059         -984 y....060         -553 y....061         -938 y....062         -627 y....063         -893 y....064         -807 y....065         -617 y....066         -809 y....067         -951 y....068         -519 y....069         -803 y....070         -844 y....071         -702 y....072         -593 y....073         -587 y....074         -948 y....075         -618 y....076         -798 y....077         -798 y....078         -972 y....079         -792 y....080         -690 y....081         -691 y....082         -656 y....083         -634 y....084         -828 y....085         -886 y....086         -869 y....087         -916 y....088         -822 y....089         -699 y....090         -892 y....091         -712 y....092         -503 y....093         -688 y....094         -755 y....095         -585 y....096         -588 y....097         -757 y....098         -669 y....099         -689 y....100         -868 y....101         -555 y....102         -941 y....103         -560 y....104         -639 y....105         -996 y....106         -549 y....107         -949 y....108         -797 y....109         -605 y....110         -955 y....111         -701 y....112         -786 y....113         -855 y....114         -912 y....115         -945 y....116         -821 y....117         -982 y....118         -696 y....119         -661 y....120         -673 y....121         -659 y....122         -753 y....123         -510 y....124         -686 y....125         -522 y....126         -787 y....127         -891 y....128         -977 y....129         -824 y....130         -872 y....131         -570 y....132         -518 y....133         -770 y....134         -692 y....135         -980 y....136         -802 y....137         -625 y....138         -523 y....139         -681 y....140         -505 y....141         -531 y....142         -722 y....143         -900 y....144         -913 y....145         -670 y....146         -711 y....147         -667 y....148         -640 y....149         -624 y....150         -576 y....151         -802 y....152         -678 y....153         -984 y....154         -619 y....155         -587 y....156         -510 y....157         -815 y....158         -543 y....159         -609 y....160         -565 y....161         -974 y....162         -629 y....163         -520 y....164         -623 y....165         -761 y....166         -764 y....167         -616 y....168         -511 y....169         -547 y....170         -790 y....171         -763 y....172         -662 y....173         -713 y....174         -865 y....175         -700 y....176         -803 y....177         -824 y....178         -613 y....179         -850 y....180         -993 y....181         -540 y....182         -835 y....183         -850 y....184         -556 y....185         -857 y....186         -837 y....187         -861 y....188         -617 y....189         -696 y....190         -923 y....191         -565 y....192         -796 y....193         -962 y....194         -654 y....195         -869 y....196         -607 y....197         -635 y....198         -675 y....199         -642 y....200         -741 y....201         -825 y....202         -626 y....203         -783 y....204         -779 y....205         -734 y....206         -556 y....207         -705 y....208         -881 y....209         -641 y....210         -642 y....211         -877 y....212         -752 y....213         -673 y....214         -875 y....215         -610 y....216         -612 y....217         -831 y....218         -685 y....219         -589 y....220         -853 y....221         -740 y....222         -835 y....223         -605 y....224         -503 y....225         -608 y....226         -549 y....227         -627 y....228         -629 y....229         -674 y....230         -715 y....231         -992 y....232         -892 y....233         -928 y....234         -575 y....235         -970 y....236         -604 y....237         -663 y....238         -510 y....239         -740 y....240   
Subject To
 CNS...01: - x....001 + x....002 - x....003 + x....004 - x....005 + x....006
           - x....007 + x....008 - x....009 + x....010 - x....011 + x....012
           - x....013 + x....014 - x....015 + x....016 - x....017 + x....018
           - x....019 + x....020 - x....021 + x....022 - x....023 + x....024
           - x....025 + x....026 - x....027 + x....028 - x....029 + x....030
            = -402
 CNS...02: x....001 - x....002 - x....031 + x....032 - x....033 + x....034
           - x....035 + x....036 - x....037 + x....038 - x....039 + x....040
           - x....041 + x....042 - x....043 + x....044 - x....045 + x....046
           - x....047 + x....048 - x....049 + x....050 - x....051 + x....052
           - x....053 + x....054 - x....055 + x....056 - x....057 + x....058
            = 24
 CNS...03: x....003 - x....004 + x....031 - x....032 - x....059 + x....060
           - x....061 + x....062 - x....063 + x....064 - x....065 + x....066
           - x....067 + x....068 - x....069 + x....070 - x....071 + x....072
           - x....073 + x....074 - x....075 + x....076 - x....077 + x....078
           - x....079 + x....080 - x....081 + x....082 - x....083 + x....084
            = 104
 CNS...04: x....005 - x....006 + x....033 - x....034 + x....059 - x....060
           - x....085 + x....086 - x....087 + x....088 - x....089 + x....090
           - x....091 + x....092 - x....093 + x....094 - x....095 + x....096
           - x....097 + x....098 - x....099 + x....100 - x....101 + x....102
           - x....103 + x....104 - x....105 + x....106 - x....107 + x....108
            = 138
 CNS...05: x....007 - x....008 + x....035 - x....036 + x....061 - x....062
           + x....085 - x....086 - x....109 + x....110 - x....111 + x....112
           - x....113 + x....114 - x....115 + x....116 - x....117 + x....118
           - x....119 + x....120 - x....121 + x....122 - x....123 + x....124
           - x....125 + x....126 - x....127 + x....128 - x....129 + x....130
            = -15
 CNS...06: x....009 - x....010 + x....037 - x....038 + x....063 - x....064
           + x....087 - x....088 + x....109 - x....110 - x....131 + x....132
           - x....133 + x....134 - x....135 + x....136 - x....137 + x....138
           - x....139 + x....140 - x....141 + x....142 - x....143 + x....144
           - x....145 + x....146 - x....147 + x....148 - x....149 + x....150
            = 209
 CNS...07: x....011 - x....012 + x....039 - x....040 + x....065 - x....066
           + x....089 - x....090 + x....111 - x....112 + x....131 - x....132
           - x....151 + x....152 - x....153 + x....154 - x....155 + x....156
           - x....157 + x....158 - x....159 + x....160 - x....161 + x....162
           - x....163 + x....164 - x....165 + x....166 - x....167 + x....168
            = 169
 CNS...08: x....013 - x....014 + x....041 - x....042 + x....067 - x....068
           + x....091 - x....092 + x....113 - x....114 + x....133 - x....134
           + x....151 - x....152 - x....169 + x....170 - x....171 + x....172
           - x....173 + x....174 - x....175 + x....176 - x....177 + x....178
           - x....179 + x....180 - x....181 + x....182 - x....183 + x....184
            = -77
 CNS...09: x....015 - x....016 + x....043 - x....044 + x....069 - x....070
           + x....093 - x....094 + x....115 - x....116 + x....135 - x....136
           + x....153 - x....154 + x....169 - x....170 - x....185 + x....186
           - x....187 + x....188 - x....189 + x....190 - x....191 + x....192
           - x....193 + x....194 - x....195 + x....196 - x....197 + x....198
            = 127
 CNS...10: x....017 - x....018 + x....045 - x....046 + x....071 - x....072
           + x....095 - x....096 + x....117 - x....118 + x....137 - x....138
           + x....155 - x....156 + x....171 - x....172 + x....185 - x....186
           - x....199 + x....200 - x....201 + x....202 - x....203 + x....204
           - x....205 + x....206 - x....207 + x....208 - x....209 + x....210
            = 66
 CNS...11: x....019 - x....020 + x....047 - x....048 + x....073 - x....074
           + x....097 - x....098 + x....119 - x....120 + x....139 - x....140
           + x....157 - x....158 + x....173 - x....174 + x....187 - x....188
           + x....199 - x....200 - x....211 + x....212 - x....213 + x....214
           - x....215 + x....216 - x....217 + x....218 - x....219 + x....220
            = -4
 CNS...12: x....021 - x....022 + x....049 - x....050 + x....075 - x....076
           + x....099 - x....100 + x....121 - x....122 + x....141 - x....142
           + x....159 - x....160 + x....175 - x....176 + x....189 - x....190
           + x....201 - x....202 + x....211 - x....212 - x....221 + x....222
           - x....223 + x....224 - x....225 + x....226 - x....227 + x....228
            = 163
 CNS...13: x....023 - x....024 + x....051 - x....052 + x....077 - x....078
           + x....101 - x....102 + x....123 - x....124 + x....143 - x....144
           + x....161 - x....162 + x....177 - x....178 + x....191 - x....192
           + x....203 - x....204 + x....213 - x....214 + x....221 - x....222
           - x....229 + x....230 - x....231 + x....232 - x....233 + x....234
            = -101
 CNS...14: x....025 - x....026 + x....053 - x....054 + x....079 - x....080
           + x....103 - x....104 + x....125 - x....126 + x....145 - x....146
           + x....163 - x....164 + x....179 - x....180 + x....193 - x....194
           + x....205 - x....206 + x....215 - x....216 + x....223 - x....224
           + x....229 - x....230 - x....235 + x....236 - x....237 + x....238
            = -190
 CNS...15: x....027 - x....028 + x....055 - x....056 + x....081 - x....082
           + x....105 - x....106 + x....127 - x....128 + x....147 - x....148
           + x....165 - x....166 + x....181 - x....182 + x....195 - x....196
           + x....207 - x....208 + x....217 - x....218 + x....225 - x....226
           + x....231 - x....232 + x....235 - x....236 - x....239 + x....240
            = -86
 CNS...16: x....029 - x....030 + x....057 - x....058 + x....083 - x....084
           + x....107 - x....108 + x....129 - x....130 + x....149 - x....150
           + x....167 - x....168 + x....183 - x....184 + x....197 - x....198
           + x....209 - x....210 + x....219 - x....220 + x....227 - x....228
           + x....233 - x....234 + x....237 - x....238 + x....239 - x....240
            = -125
 UC...001: x....001 - 1000 y....001 <= 0
 UC...002: x....002 - 1000 y....002 <= 0
 UC...003: x....003 - 1000 y....003 <= 0
 UC...004: x....004 - 1000 y....004 <= 0
 UC...005: x....005 - 1000 y....005 <= 0
 UC...006: x....006 - 1000 y....006 <= 0
 UC...007: x....007 - 1000 y....007 <= 0
 UC...008: x....008 - 1000 y....008 <= 0
 UC...009: x....009 - 1000 y....009 <= 0
 UC...010: x....010 - 1000 y....010 <= 0
 UC...011: x....011 - 1000 y....011 <= 0
 UC...012: x....012 - 1000 y....012 <= 0
 UC...013: x....013 - 1000 y....013 <= 0
 UC...014: x....014 - 1000 y....014 <= 0
 UC...015: x....015 - 1000 y....015 <= 0
 UC...016: x....016 - 1000 y....016 <= 0
 UC...017: x....017 - 1000 y....017 <= 0
 UC...018: x....018 - 1000 y....018 <= 0
 UC...019: x....019 - 1000 y....019 <= 0
 UC...020: x....020 - 1000 y....020 <= 0
 UC...021: x....021 - 1000 y....021 <= 0
 UC...022: x....022 - 1000 y....022 <= 0
 UC...023: x....023 - 1000 y....023 <= 0
 UC...024: x....024 - 1000 y....024 <= 0
 UC...025: x....025 - 1000 y....025 <= 0
 UC...026: x....026 - 1000 y....026 <= 0
 UC...027: x....027 - 1000 y....027 <= 0
 UC...028: x....028 - 1000 y....028 <= 0
 UC...029: x....029 - 1000 y....029 <= 0
 UC...030: x....030 - 1000 y....030 <= 0
 UC...031: x....031 - 1000 y....031 <= 0
 UC...032: x....032 - 1000 y....032 <= 0
 UC...033: x....033 - 1000 y....033 <= 0
 UC...034: x....034 - 1000 y....034 <= 0
 UC...035: x....035 - 1000 y....035 <= 0
 UC...036: x....036 - 1000 y....036 <= 0
 UC...037: x....037 - 1000 y....037 <= 0
 UC...038: x....038 - 1000 y....038 <= 0
 UC...039: x....039 - 1000 y....039 <= 0
 UC...040: x....040 - 1000 y....040 <= 0
 UC...041: x....041 - 1000 y....041 <= 0
 UC...042: x....042 - 1000 y....042 <= 0
 UC...043: x....043 - 1000 y....043 <= 0
 UC...044: x....044 - 1000 y....044 <= 0
 UC...045: x....045 - 1000 y....045 <= 0
 UC...046: x....046 - 1000 y....046 <= 0
 UC...047: x....047 - 1000 y....047 <= 0
 UC...048: x....048 - 1000 y....048 <= 0
 UC...049: x....049 - 1000 y....049 <= 0
 UC...050: x....050 - 1000 y....050 <= 0
 UC...051: x....051 - 1000 y....051 <= 0
 UC...052: x....052 - 1000 y....052 <= 0
 UC...053: x....053 - 1000 y....053 <= 0
 UC...054: x....054 - 1000 y....054 <= 0
 UC...055: x....055 - 1000 y....055 <= 0
 UC...056: x....056 - 1000 y....056 <= 0
 UC...057: x....057 - 1000 y....057 <= 0
 UC...058: x....058 - 1000 y....058 <= 0
 UC...059: x....059 - 1000 y....059 <= 0
 UC...060: x....060 - 1000 y....060 <= 0
 UC...061: x....061 - 1000 y....061 <= 0
 UC...062: x....062 - 1000 y....062 <= 0
 UC...063: x....063 - 1000 y....063 <= 0
 UC...064: x....064 - 1000 y....064 <= 0
 UC...065: x....065 - 1000 y....065 <= 0
 UC...066: x....066 - 1000 y....066 <= 0
 UC...067: x....067 - 1000 y....067 <= 0
 UC...068: x....068 - 1000 y....068 <= 0
 UC...069: x....069 - 1000 y....069 <= 0
 UC...070: x....070 - 1000 y....070 <= 0
 UC...071: x....071 - 1000 y....071 <= 0
 UC...072: x....072 - 1000 y....072 <= 0
 UC...073: x....073 - 1000 y....073 <= 0
 UC...074: x....074 - 1000 y....074 <= 0
 UC...075: x....075 - 1000 y....075 <= 0
 UC...076: x....076 - 1000 y....076 <= 0
 UC...077: x....077 - 1000 y....077 <= 0
 UC...078: x....078 - 1000 y....078 <= 0
 UC...079: x....079 - 1000 y....079 <= 0
 UC...080: x....080 - 1000 y....080 <= 0
 UC...081: x....081 - 1000 y....081 <= 0
 UC...082: x....082 - 1000 y....082 <= 0
 UC...083: x....083 - 1000 y....083 <= 0
 UC...084: x....084 - 1000 y....084 <= 0
 UC...085: x....085 - 1000 y....085 <= 0
 UC...086: x....086 - 1000 y....086 <= 0
 UC...087: x....087 - 1000 y....087 <= 0
 UC...088: x....088 - 1000 y....088 <= 0
 UC...089: x....089 - 1000 y....089 <= 0
 UC...090: x....090 - 1000 y....090 <= 0
 UC...091: x....091 - 1000 y....091 <= 0
 UC...092: x....092 - 1000 y....092 <= 0
 UC...093: x....093 - 1000 y....093 <= 0
 UC...094: x....094 - 1000 y....094 <= 0
 UC...095: x....095 - 1000 y....095 <= 0
 UC...096: x....096 - 1000 y....096 <= 0
 UC...097: x....097 - 1000 y....097 <= 0
 UC...098: x....098 - 1000 y....098 <= 0
 UC...099: x....099 - 1000 y....099 <= 0
 UC...100: x....100 - 1000 y....100 <= 0
 UC...101: x....101 - 1000 y....101 <= 0
 UC...102: x....102 - 1000 y....102 <= 0
 UC...103: x....103 - 1000 y....103 <= 0
 UC...104: x....104 - 1000 y....104 <= 0
 UC...105: x....105 - 1000 y....105 <= 0
 UC...106: x....106 - 1000 y....106 <= 0
 UC...107: x....107 - 1000 y....107 <= 0
 UC...108: x....108 - 1000 y....108 <= 0
 UC...109: x....109 - 1000 y....109 <= 0
 UC...110: x....110 - 1000 y....110 <= 0
 UC...111: x....111 - 1000 y....111 <= 0
 UC...112: x....112 - 1000 y....112 <= 0
 UC...113: x....113 - 1000 y....113 <= 0
 UC...114: x....114 - 1000 y....114 <= 0
 UC...115: x....115 - 1000 y....115 <= 0
 UC...116: x....116 - 1000 y....116 <= 0
 UC...117: x....117 - 1000 y....117 <= 0
 UC...118: x....118 - 1000 y....118 <= 0
 UC...119: x....119 - 1000 y....119 <= 0
 UC...120: x....120 - 1000 y....120 <= 0
 UC...121: x....121 - 1000 y....121 <= 0
 UC...122: x....122 - 1000 y....122 <= 0
 UC...123: x....123 - 1000 y....123 <= 0
 UC...124: x....124 - 1000 y....124 <= 0
 UC...125: x....125 - 1000 y....125 <= 0
 UC...126: x....126 - 1000 y....126 <= 0
 UC...127: x....127 - 1000 y....127 <= 0
 UC...128: x....128 - 1000 y....128 <= 0
 UC...129: x....129 - 1000 y....129 <= 0
 UC...130: x....130 - 1000 y....130 <= 0
 UC...131: x....131 - 1000 y....131 <= 0
 UC...132: x....132 - 1000 y....132 <= 0
 UC...133: x....133 - 1000 y....133 <= 0
 UC...134: x....134 - 1000 y....134 <= 0
 UC...135: x....135 - 1000 y....135 <= 0
 UC...136: x....136 - 1000 y....136 <= 0
 UC...137: x....137 - 1000 y....137 <= 0
 UC...138: x....138 - 1000 y....138 <= 0
 UC...139: x....139 - 1000 y....139 <= 0
 UC...140: x....140 - 1000 y....140 <= 0
 UC...141: x....141 - 1000 y....141 <= 0
 UC...142: x....142 - 1000 y....142 <= 0
 UC...143: x....143 - 1000 y....143 <= 0
 UC...144: x....144 - 1000 y....144 <= 0
 UC...145: x....145 - 1000 y....145 <= 0
 UC...146: x....146 - 1000 y....146 <= 0
 UC...147: x....147 - 1000 y....147 <= 0
 UC...148: x....148 - 1000 y....148 <= 0
 UC...149: x....149 - 1000 y....149 <= 0
 UC...150: x....150 - 1000 y....150 <= 0
 UC...151: x....151 - 1000 y....151 <= 0
 UC...152: x....152 - 1000 y....152 <= 0
 UC...153: x....153 - 1000 y....153 <= 0
 UC...154: x....154 - 1000 y....154 <= 0
 UC...155: x....155 - 1000 y....155 <= 0
 UC...156: x....156 - 1000 y....156 <= 0
 UC...157: x....157 - 1000 y....157 <= 0
 UC...158: x....158 - 1000 y....158 <= 0
 UC...159: x....159 - 1000 y....159 <= 0
 UC...160: x....160 - 1000 y....160 <= 0
 UC...161: x....161 - 1000 y....161 <= 0
 UC...162: x....162 - 1000 y....162 <= 0
 UC...163: x....163 - 1000 y....163 <= 0
 UC...164: x....164 - 1000 y....164 <= 0
 UC...165: x....165 - 1000 y....165 <= 0
 UC...166: x....166 - 1000 y....166 <= 0
 UC...167: x....167 - 1000 y....167 <= 0
 UC...168: x....168 - 1000 y....168 <= 0
 UC...169: x....169 - 1000 y....169 <= 0
 UC...170: x....170 - 1000 y....170 <= 0
 UC...171: x....171 - 1000 y....171 <= 0
 UC...172: x....172 - 1000 y....172 <= 0
 UC...173: x....173 - 1000 y....173 <= 0
 UC...174: x....174 - 1000 y....174 <= 0
 UC...175: x....175 - 1000 y....175 <= 0
 UC...176: x....176 - 1000 y....176 <= 0
 UC...177: x....177 - 1000 y....177 <= 0
 UC...178: x....178 - 1000 y....178 <= 0
 UC...179: x....179 - 1000 y....179 <= 0
 UC...180: x....180 - 1000 y....180 <= 0
 UC...181: x....181 - 1000 y....181 <= 0
 UC...182: x....182 - 1000 y....182 <= 0
 UC...183: x....183 - 1000 y....183 <= 0
 UC...184: x....184 - 1000 y....184 <= 0
 UC...185: x....185 - 1000 y....185 <= 0
 UC...186: x....186 - 1000 y....186 <= 0
 UC...187: x....187 - 1000 y....187 <= 0
 UC...188: x....188 - 1000 y....188 <= 0
 UC...189: x....189 - 1000 y....189 <= 0
 UC...190: x....190 - 1000 y....190 <= 0
 UC...191: x....191 - 1000 y....191 <= 0
 UC...192: x....192 - 1000 y....192 <= 0
 UC...193: x....193 - 1000 y....193 <= 0
 UC...194: x....194 - 1000 y....194 <= 0
 UC...195: x....195 - 1000 y....195 <= 0
 UC...196: x....196 - 1000 y....196 <= 0
 UC...197: x....197 - 1000 y....197 <= 0
 UC...198: x....198 - 1000 y....198 <= 0
 UC...199: x....199 - 1000 y....199 <= 0
 UC...200: x....200 - 1000 y....200 <= 0
 UC...201: x....201 - 1000 y....201 <= 0
 UC...202: x....202 - 1000 y....202 <= 0
 UC...203: x....203 - 1000 y....203 <= 0
 UC...204: x....204 - 1000 y....204 <= 0
 UC...205: x....205 - 1000 y....205 <= 0
 UC...206: x....206 - 1000 y....206 <= 0
 UC...207: x....207 - 1000 y....207 <= 0
 UC...208: x....208 - 1000 y....208 <= 0
 UC...209: x....209 - 1000 y....209 <= 0
 UC...210: x....210 - 1000 y....210 <= 0
 UC...211: x....211 - 1000 y....211 <= 0
 UC...212: x....212 - 1000 y....212 <= 0
 UC...213: x....213 - 1000 y....213 <= 0
 UC...214: x....214 - 1000 y....214 <= 0
 UC...215: x....215 - 1000 y....215 <= 0
 UC...216: x....216 - 1000 y....216 <= 0
 UC...217: x....217 - 1000 y....217 <= 0
 UC...218: x....218 - 1000 y....218 <= 0
 UC...219: x....219 - 1000 y....219 <= 0
 UC...220: x....220 - 1000 y....220 <= 0
 UC...221: x....221 - 1000 y....221 <= 0
 UC...222: x....222 - 1000 y....222 <= 0
 UC...223: x....223 - 1000 y....223 <= 0
 UC...224: x....224 - 1000 y....224 <= 0
 UC...225: x....225 - 1000 y....225 <= 0
 UC...226: x....226 - 1000 y....226 <= 0
 UC...227: x....227 - 1000 y....227 <= 0
 UC...228: x....228 - 1000 y....228 <= 0
 UC...229: x....229 - 1000 y....229 <= 0
 UC...230: x....230 - 1000 y....230 <= 0
 UC...231: x....231 - 1000 y....231 <= 0
 UC...232: x....232 - 1000 y....232 <= 0
 UC...233: x....233 - 1000 y....233 <= 0
 UC...234: x....234 - 1000 y....234 <= 0
 UC...235: x....235 - 1000 y....235 <= 0
 UC...236: x....236 - 1000 y....236 <= 0
 UC...237: x....237 - 1000 y....237 <= 0
 UC...238: x....238 - 1000 y....238 <= 0
 UC...239: x....239 - 1000 y....239 <= 0
 UC...240: x....240 - 1000 y....240 <= 0
Bounds
 0 <= x....001 <= 1000
 0 <= x....002 <= 1000
 0 <= x....003 <= 1000
 0 <= x....004 <= 1000
 0 <= x....005 <= 1000
 0 <= x....006 <= 1000
 0 <= x....007 <= 1000
 0 <= x....008 <= 1000
 0 <= x....009 <= 1000
 0 <= x....010 <= 1000
 0 <= x....011 <= 1000
 0 <= x....012 <= 1000
 0 <= x....013 <= 1000
 0 <= x....014 <= 1000
 0 <= x....015 <= 1000
 0 <= x....016 <= 1000
 0 <= x....017 <= 1000
 0 <= x....018 <= 1000
 0 <= x....019 <= 1000
 0 <= x....020 <= 1000
 0 <= x....021 <= 1000
 0 <= x....022 <= 1000
 0 <= x....023 <= 1000
 0 <= x....024 <= 1000
 0 <= x....025 <= 1000
 0 <= x....026 <= 1000
 0 <= x....027 <= 1000
 0 <= x....028 <= 1000
 0 <= x....029 <= 1000
 0 <= x....030 <= 1000
 0 <= x....031 <= 1000
 0 <= x....032 <= 1000
 0 <= x....033 <= 1000
 0 <= x....034 <= 1000
 0 <= x....035 <= 1000
 0 <= x....036 <= 1000
 0 <= x....037 <= 1000
 0 <= x....038 <= 1000
 0 <= x....039 <= 1000
 0 <= x....040 <= 1000
 0 <= x....041 <= 1000
 0 <= x....042 <= 1000
 0 <= x....043 <= 1000
 0 <= x....044 <= 1000
 0 <= x....045 <= 1000
 0 <= x....046 <= 1000
 0 <= x....047 <= 1000
 0 <= x....048 <= 1000
 0 <= x....049 <= 1000
 0 <= x....050 <= 1000
 0 <= x....051 <= 1000
 0 <= x....052 <= 1000
 0 <= x....053 <= 1000
 0 <= x....054 <= 1000
 0 <= x....055 <= 1000
 0 <= x....056 <= 1000
 0 <= x....057 <= 1000
 0 <= x....058 <= 1000
 0 <= x....059 <= 1000
 0 <= x....060 <= 1000
 0 <= x....061 <= 1000
 0 <= x....062 <= 1000
 0 <= x....063 <= 1000
 0 <= x....064 <= 1000
 0 <= x....065 <= 1000
 0 <= x....066 <= 1000
 0 <= x....067 <= 1000
 0 <= x....068 <= 1000
 0 <= x....069 <= 1000
 0 <= x....070 <= 1000
 0 <= x....071 <= 1000
 0 <= x....072 <= 1000
 0 <= x....073 <= 1000
 0 <= x....074 <= 1000
 0 <= x....075 <= 1000
 0 <= x....076 <= 1000
 0 <= x....077 <= 1000
 0 <= x....078 <= 1000
 0 <= x....079 <= 1000
 0 <= x....080 <= 1000
 0 <= x....081 <= 1000
 0 <= x....082 <= 1000
 0 <= x....083 <= 1000
 0 <= x....084 <= 1000
 0 <= x....085 <= 1000
 0 <= x....086 <= 1000
 0 <= x....087 <= 1000
 0 <= x....088 <= 1000
 0 <= x....089 <= 1000
 0 <= x....090 <= 1000
 0 <= x....091 <= 1000
 0 <= x....092 <= 1000
 0 <= x....093 <= 1000
 0 <= x....094 <= 1000
 0 <= x....095 <= 1000
 0 <= x....096 <= 1000
 0 <= x....097 <= 1000
 0 <= x....098 <= 1000
 0 <= x....099 <= 1000
 0 <= x....100 <= 1000
 0 <= x....101 <= 1000
 0 <= x....102 <= 1000
 0 <= x....103 <= 1000
 0 <= x....104 <= 1000
 0 <= x....105 <= 1000
 0 <= x....106 <= 1000
 0 <= x....107 <= 1000
 0 <= x....108 <= 1000
 0 <= x....109 <= 1000
 0 <= x....110 <= 1000
 0 <= x....111 <= 1000
 0 <= x....112 <= 1000
 0 <= x....113 <= 1000
 0 <= x....114 <= 1000
 0 <= x....115 <= 1000
 0 <= x....116 <= 1000
 0 <= x....117 <= 1000
 0 <= x....118 <= 1000
 0 <= x....119 <= 1000
 0 <= x....120 <= 1000
 0 <= x....121 <= 1000
 0 <= x....122 <= 1000
 0 <= x....123 <= 1000
 0 <= x....124 <= 1000
 0 <= x....125 <= 1000
 0 <= x....126 <= 1000
 0 <= x....127 <= 1000
 0 <= x....128 <= 1000
 0 <= x....129 <= 1000
 0 <= x....130 <= 1000
 0 <= x....131 <= 1000
 0 <= x....132 <= 1000
 0 <= x....133 <= 1000
 0 <= x....134 <= 1000
 0 <= x....135 <= 1000
 0 <= x....136 <= 1000
 0 <= x....137 <= 1000
 0 <= x....138 <= 1000
 0 <= x....139 <= 1000
 0 <= x....140 <= 1000
 0 <= x....141 <= 1000
 0 <= x....142 <= 1000
 0 <= x....143 <= 1000
 0 <= x....144 <= 1000
 0 <= x....145 <= 1000
 0 <= x....146 <= 1000
 0 <= x....147 <= 1000
 0 <= x....148 <= 1000
 0 <= x....149 <= 1000
 0 <= x....150 <= 1000
 0 <= x....151 <= 1000
 0 <= x....152 <= 1000
 0 <= x....153 <= 1000
 0 <= x....154 <= 1000
 0 <= x....155 <= 1000
 0 <= x....156 <= 1000
 0 <= x....157 <= 1000
 0 <= x....158 <= 1000
 0 <= x....159 <= 1000
 0 <= x....160 <= 1000
 0 <= x....161 <= 1000
 0 <= x....162 <= 1000
 0 <= x....163 <= 1000
 0 <= x....164 <= 1000
 0 <= x....165 <= 1000
 0 <= x....166 <= 1000
 0 <= x....167 <= 1000
 0 <= x....168 <= 1000
 0 <= x....169 <= 1000
 0 <= x....170 <= 1000
 0 <= x....171 <= 1000
 0 <= x....172 <= 1000
 0 <= x....173 <= 1000
 0 <= x....174 <= 1000
 0 <= x....175 <= 1000
 0 <= x....176 <= 1000
 0 <= x....177 <= 1000
 0 <= x....178 <= 1000
 0 <= x....179 <= 1000
 0 <= x....180 <= 1000
 0 <= x....181 <= 1000
 0 <= x....182 <= 1000
 0 <= x....183 <= 1000
 0 <= x....184 <= 1000
 0 <= x....185 <= 1000
 0 <= x....186 <= 1000
 0 <= x....187 <= 1000
 0 <= x....188 <= 1000
 0 <= x....189 <= 1000
 0 <= x....190 <= 1000
 0 <= x....191 <= 1000
 0 <= x....192 <= 1000
 0 <= x....193 <= 1000
 0 <= x....194 <= 1000
 0 <= x....195 <= 1000
 0 <= x....196 <= 1000
 0 <= x....197 <= 1000
 0 <= x....198 <= 1000
 0 <= x....199 <= 1000
 0 <= x....200 <= 1000
 0 <= x....201 <= 1000
 0 <= x....202 <= 1000
 0 <= x....203 <= 1000
 0 <= x....204 <= 1000
 0 <= x....205 <= 1000
 0 <= x....206 <= 1000
 0 <= x....207 <= 1000
 0 <= x....208 <= 1000
 0 <= x....209 <= 1000
 0 <= x....210 <= 1000
 0 <= x....211 <= 1000
 0 <= x....212 <= 1000
 0 <= x....213 <= 1000
 0 <= x....214 <= 1000
 0 <= x....215 <= 1000
 0 <= x....216 <= 1000
 0 <= x....217 <= 1000
 0 <= x....218 <= 1000
 0 <= x....219 <= 1000
 0 <= x....220 <= 1000
 0 <= x....221 <= 1000
 0 <= x....222 <= 1000
 0 <= x....223 <= 1000
 0 <= x....224 <= 1000
 0 <= x....225 <= 1000
 0 <= x....226 <= 1000
 0 <= x....227 <= 1000
 0 <= x....228 <= 1000
 0 <= x....229 <= 1000
 0 <= x....230 <= 1000
 0 <= x....231 <= 1000
 0 <= x....232 <= 1000
 0 <= x....233 <= 1000
 0 <= x....234 <= 1000
 0 <= x....235 <= 1000
 0 <= x....236 <= 1000
 0 <= x....237 <= 1000
 0 <= x....238 <= 1000
 0 <= x....239 <= 1000
 0 <= x....240 <= 1000
 0 <= y....001 <= 1
 0 <= y....002 <= 1
 0 <= y....003 <= 1
 0 <= y....004 <= 1
 0 <= y....005 <= 1
 0 <= y....006 <= 1
 0 <= y....007 <= 1
 0 <= y....008 <= 1
 0 <= y....009 <= 1
 0 <= y....010 <= 1
 0 <= y....011 <= 1
 0 <= y....012 <= 1
 0 <= y....013 <= 1
 0 <= y....014 <= 1
 0 <= y....015 <= 1
 0 <= y....016 <= 1
 0 <= y....017 <= 1
 0 <= y....018 <= 1
 0 <= y....019 <= 1
 0 <= y....020 <= 1
 0 <= y....021 <= 1
 0 <= y....022 <= 1
 0 <= y....023 <= 1
 0 <= y....024 <= 1
 0 <= y....025 <= 1
 0 <= y....026 <= 1
 0 <= y....027 <= 1
 0 <= y....028 <= 1
 0 <= y....029 <= 1
 0 <= y....030 <= 1
 0 <= y....031 <= 1
 0 <= y....032 <= 1
 0 <= y....033 <= 1
 0 <= y....034 <= 1
 0 <= y....035 <= 1
 0 <= y....036 <= 1
 0 <= y....037 <= 1
 0 <= y....038 <= 1
 0 <= y....039 <= 1
 0 <= y....040 <= 1
 0 <= y....041 <= 1
 0 <= y....042 <= 1
 0 <= y....043 <= 1
 0 <= y....044 <= 1
 0 <= y....045 <= 1
 0 <= y....046 <= 1
 0 <= y....047 <= 1
 0 <= y....048 <= 1
 0 <= y....049 <= 1
 0 <= y....050 <= 1
 0 <= y....051 <= 1
 0 <= y....052 <= 1
 0 <= y....053 <= 1
 0 <= y....054 <= 1
 0 <= y....055 <= 1
 0 <= y....056 <= 1
 0 <= y....057 <= 1
 0 <= y....058 <= 1
 0 <= y....059 <= 1
 0 <= y....060 <= 1
 0 <= y....061 <= 1
 0 <= y....062 <= 1
 0 <= y....063 <= 1
 0 <= y....064 <= 1
 0 <= y....065 <= 1
 0 <= y....066 <= 1
 0 <= y....067 <= 1
 0 <= y....068 <= 1
 0 <= y....069 <= 1
 0 <= y....070 <= 1
 0 <= y....071 <= 1
 0 <= y....072 <= 1
 0 <= y....073 <= 1
 0 <= y....074 <= 1
 0 <= y....075 <= 1
 0 <= y....076 <= 1
 0 <= y....077 <= 1
 0 <= y....078 <= 1
 0 <= y....079 <= 1
 0 <= y....080 <= 1
 0 <= y....081 <= 1
 0 <= y....082 <= 1
 0 <= y....083 <= 1
 0 <= y....084 <= 1
 0 <= y....085 <= 1
 0 <= y....086 <= 1
 0 <= y....087 <= 1
 0 <= y....088 <= 1
 0 <= y....089 <= 1
 0 <= y....090 <= 1
 0 <= y....091 <= 1
 0 <= y....092 <= 1
 0 <= y....093 <= 1
 0 <= y....094 <= 1
 0 <= y....095 <= 1
 0 <= y....096 <= 1
 0 <= y....097 <= 1
 0 <= y....098 <= 1
 0 <= y....099 <= 1
 0 <= y....100 <= 1
 0 <= y....101 <= 1
 0 <= y....102 <= 1
 0 <= y....103 <= 1
 0 <= y....104 <= 1
 0 <= y....105 <= 1
 0 <= y....106 <= 1
 0 <= y....107 <= 1
 0 <= y....108 <= 1
 0 <= y....109 <= 1
 0 <= y....110 <= 1
 0 <= y....111 <= 1
 0 <= y....112 <= 1
 0 <= y....113 <= 1
 0 <= y....114 <= 1
 0 <= y....115 <= 1
 0 <= y....116 <= 1
 0 <= y....117 <= 1
 0 <= y....118 <= 1
 0 <= y....119 <= 1
 0 <= y....120 <= 1
 0 <= y....121 <= 1
 0 <= y....122 <= 1
 0 <= y....123 <= 1
 0 <= y....124 <= 1
 0 <= y....125 <= 1
 0 <= y....126 <= 1
 0 <= y....127 <= 1
 0 <= y....128 <= 1
 0 <= y....129 <= 1
 0 <= y....130 <= 1
 0 <= y....131 <= 1
 0 <= y....132 <= 1
 0 <= y....133 <= 1
 0 <= y....134 <= 1
 0 <= y....135 <= 1
 0 <= y....136 <= 1
 0 <= y....137 <= 1
 0 <= y....138 <= 1
 0 <= y....139 <= 1
 0 <= y....140 <= 1
 0 <= y....141 <= 1
 0 <= y....142 <= 1
 0 <= y....143 <= 1
 0 <= y....144 <= 1
 0 <= y....145 <= 1
 0 <= y....146 <= 1
 0 <= y....147 <= 1
 0 <= y....148 <= 1
 0 <= y....149 <= 1
 0 <= y....150 <= 1
 0 <= y....151 <= 1
 0 <= y....152 <= 1
 0 <= y....153 <= 1
 0 <= y....154 <= 1
 0 <= y....155 <= 1
 0 <= y....156 <= 1
 0 <= y....157 <= 1
 0 <= y....158 <= 1
 0 <= y....159 <= 1
 0 <= y....160 <= 1
 0 <= y....161 <= 1
 0 <= y....162 <= 1
 0 <= y....163 <= 1
 0 <= y....164 <= 1
 0 <= y....165 <= 1
 0 <= y....166 <= 1
 0 <= y....167 <= 1
 0 <= y....168 <= 1
 0 <= y....169 <= 1
 0 <= y....170 <= 1
 0 <= y....171 <= 1
 0 <= y....172 <= 1
 0 <= y....173 <= 1
 0 <= y....174 <= 1
 0 <= y....175 <= 1
 0 <= y....176 <= 1
 0 <= y....177 <= 1
 0 <= y....178 <= 1
 0 <= y....179 <= 1
 0 <= y....180 <= 1
 0 <= y....181 <= 1
 0 <= y....182 <= 1
 0 <= y....183 <= 1
 0 <= y....184 <= 1
 0 <= y....185 <= 1
 0 <= y....186 <= 1
 0 <= y....187 <= 1
 0 <= y....188 <= 1
 0 <= y....189 <= 1
 0 <= y....190 <= 1
 0 <= y....191 <= 1
 0 <= y....192 <= 1
 0 <= y....193 <= 1
 0 <= y....194 <= 1
 0 <= y....195 <= 1
 0 <= y....196 <= 1
 0 <= y....197 <= 1
 0 <= y....198 <= 1
 0 <= y....199 <= 1
 0 <= y....200 <= 1
 0 <= y....201 <= 1
 0 <= y....202 <= 1
 0 <= y....203 <= 1
 0 <= y....204 <= 1
 0 <= y....205 <= 1
 0 <= y....206 <= 1
 0 <= y....207 <= 1
 0 <= y....208 <= 1
 0 <= y....209 <= 1
 0 <= y....210 <= 1
 0 <= y....211 <= 1
 0 <= y....212 <= 1
 0 <= y....213 <= 1
 0 <= y....214 <= 1
 0 <= y....215 <= 1
 0 <= y....216 <= 1
 0 <= y....217 <= 1
 0 <= y....218 <= 1
 0 <= y....219 <= 1
 0 <= y....220 <= 1
 0 <= y....221 <= 1
 0 <= y....222 <= 1
 0 <= y....223 <= 1
 0 <= y....224 <= 1
 0 <= y....225 <= 1
 0 <= y....226 <= 1
 0 <= y....227 <= 1
 0 <= y....228 <= 1
 0 <= y....229 <= 1
 0 <= y....230 <= 1
 0 <= y....231 <= 1
 0 <= y....232 <= 1
 0 <= y....233 <= 1
 0 <= y....234 <= 1
 0 <= y....235 <= 1
 0 <= y....236 <= 1
 0 <= y....237 <= 1
 0 <= y....238 <= 1
 0 <= y....239 <= 1
 0 <= y....240 <= 1
Binaries
 y....001  y....002  y....003  y....004  y....005  y....006  y....007 
 y....008  y....009  y....010  y....011  y....012  y....013  y....014 
 y....015  y....016  y....017  y....018  y....019  y....020  y....021 
 y....022  y....023  y....024  y....025  y....026  y....027  y....028 
 y....029  y....030  y....031  y....032  y....033  y....034  y....035 
 y....036  y....037  y....038  y....039  y....040  y....041  y....042 
 y....043  y....044  y....045  y....046  y....047  y....048  y....049 
 y....050  y....051  y....052  y....053  y....054  y....055  y....056 
 y....057  y....058  y....059  y....060  y....061  y....062  y....063 
 y....064  y....065  y....066  y....067  y....068  y....069  y....070 
 y....071  y....072  y....073  y....074  y....075  y....076  y....077 
 y....078  y....079  y....080  y....081  y....082  y....083  y....084 
 y....085  y....086  y....087  y....088  y....089  y....090  y....091 
 y....092  y....093  y....094  y....095  y....096  y....097  y....098 
 y....099  y....100  y....101  y....102  y....103  y....104  y....105 
 y....106  y....107  y....108  y....109  y....110  y....111  y....112 
 y....113  y....114  y....115  y....116  y....117  y....118  y....119 
 y....120  y....121  y....122  y....123  y....124  y....125  y....126 
 y....127  y....128  y....129  y....130  y....131  y....132  y....133 
 y....134  y....135  y....136  y....137  y....138  y....139  y....140 
 y....141  y....142  y....143  y....144  y....145  y....146  y....147 
 y....148  y....149  y....150  y....151  y....152  y....153  y....154 
 y....155  y....156  y....157  y....158  y....159  y....160  y....161 
 y....162  y....163  y....164  y....165  y....166  y....167  y....168 
 y....169  y....170  y....171  y....172  y....173  y....174  y....175 
 y....176  y....177  y....178  y....179  y....180  y....181  y....182 
 y....183  y....184  y....185  y....186  y....187  y....188  y....189 
 y....190  y....191  y....192  y....193  y....194  y....195  y....196 
 y....197  y....198  y....199  y....200  y....201  y....202  y....203 
 y....204  y....205  y....206  y....207  y....208  y....209  y....210 
 y....211  y....212  y....213  y....214  y....215  y....216  y....217 
 y....218  y....219  y....220  y....221  y....222  y....223  y....224 
 y....225  y....226  y....227  y....228  y....229  y....230  y....231 
 y....232  y....233  y....234  y....235  y....236  y....237  y....238 
 y....239  y....240 
End
